language ESSENCE' 1.0
letting mainRow be 5
letting mainCol be 7
letting topRows be 3
letting leftCols be 4
letting leftMatrix be [
[1, 2, 1, 0],
[5, 1, 0, 0],
[1, 3, 0, 0],
[1, 2, 0, 0],
[1, 1, 2, 0],
]
letting topMatrix be [
[3, 1, 1, 4, 3, 3, 2],
[1, 0, 1, 0, 0, 0, 2],
[0, 0, 0, 0, 0, 0, 0],

]